(set-logic HORN)
(set-info :source |
  Benchmark: ./benchmarks/ocaml/safety/tacas2015//bcopy-without-size.ml
  Generated by Refinement Caml
|)
(set-info :status unknown)
(declare-fun |$P6| (Int) Bool)
(declare-fun |$P10| (Int Int) Bool)
(declare-fun |$P2| (Int Int) Bool)
(declare-fun |$P3| (Int Int Int) Bool)
(declare-fun |$P1| (Int Int) Bool)
(declare-fun |$P0| (Int) Bool)
(declare-fun |$P13| (Int Int Int Int) Bool)
(declare-fun |$P14| (Int Int Int Int) Bool)
(declare-fun |$P9| (Int Int Int) Bool)
(declare-fun |$P4| (Int Int Int Int) Bool)
(declare-fun |$P7| (Int) Bool)
(declare-fun |$P5| (Int Int Int Int Int) Bool)
(declare-fun |$P8| (Int Int) Bool)
(declare-fun |$P11| (Int Int Int) Bool)
(declare-fun |$P12| (Int Int Int) Bool)
(assert (not (exists ((x0 Int)(x1 Int)(x3 Int)(x2 Int)) (and (|$P6| x2) (and (|$P10| x2 x3) (and (or (not (> x0 0)) (not (> x1 0))) (and (or (and (> x0 0) (<= 0 x3)) (and (not (> x0 0)) (not (<= 0 x3)))) (or (and (> x1 0) (< x3 x2)) (and (not (> x1 0)) (not (< x3 x2)))))))))))
(assert (forall ((x1 Int)(x2 Int)(x0 Int)) (=> (and (|$P6| x1) (and (|$P10| x1 x2) (and (and (<= 0 x2) (<= (+ 1 x2) x1)) (= x0 0)))) (|$P12| x1 x2 x0))))
(assert (forall ((x2 Int)(x1 Int)(x0 Int)) (=> (and (|$P3| x1 x2 x0) (|$P2| x1 x2)) (|$P0| x2))))
(assert (forall ((x1 Int)(x3 Int)(x2 Int)(x0 Int)(x4 Int)) (=> (and (|$P2| x1 x3) (and (|$P3| x1 x3 x2) (|$P1| x3 x4))) (|$P4| x1 x3 x2 x0))))
(assert (forall ((x1 Int)(x2 Int)(x3 Int)(x4 Int)(x0 Int)) (=> (and (|$P7| x1) (and (|$P14| x1 x2 x3 x4) (>= x4 x1))) (|$P5| x1 x2 x3 x4 x0))))
(assert (forall ((x0 Int)(x3 Int)(x1 Int)(x2 Int)) (=> (and (|$P7| x0) (and (|$P14| x0 x1 x2 x3) (<= (+ 1 x3) x0))) (|$P8| x0 x3))))
(assert (forall ((x2 Int)(x0 Int)(x5 Int)(x3 Int)(x1 Int)(x4 Int)) (=> (and (|$P7| x2) (and (|$P14| x2 x0 x1 x3) (and (|$P9| x2 x3 x4) (and (|$P0| x5) (<= (+ 1 x3) x2))))) (|$P11| x2 x0 x5))))
(assert (forall ((x5 Int)(x6 Int)(x1 Int)(x3 Int)(x4 Int)(x0 Int)(x2 Int)) (=> (and (|$P7| x3) (and (|$P14| x3 x4 x0 x1) (and (|$P9| x3 x1 x2) (and (|$P0| x5) (and (|$P13| x3 x4 x5 x6) (<= (+ 1 x1) x3)))))) (|$P1| x5 x6))))
(assert (forall ((x3 Int)(x4 Int)(x1 Int)(x0 Int)(x2 Int)) (=> (and (|$P7| x1) (and (|$P9| x1 x4 x0) (and (|$P14| x1 x2 x3 x4) (<= (+ 1 x4) x1)))) (|$P2| x3 x4))))
(assert (forall ((x1 Int)(x3 Int)(x4 Int)(x2 Int)(x0 Int)) (=> (and (|$P7| x2) (and (|$P14| x2 x0 x1 x3) (and (|$P9| x2 x3 x4) (<= (+ 1 x3) x2)))) (|$P3| x1 x3 x4))))
(assert (forall ((x6 Int)(x3 Int)(x0 Int)(x1 Int)(x2 Int)(x4 Int)(x5 Int)) (=> (and (|$P14| x6 x1 x2 x3) (and (|$P9| x6 x3 x4) (and (|$P4| x2 x3 x4 x5) (and (|$P7| x6) (and (<= (+ 1 x3) x6) (= x0 (+ 1 x3))))))) (|$P7| x6))))
(assert (forall ((x6 Int)(x7 Int)(x3 Int)(x0 Int)(x1 Int)(x2 Int)(x4 Int)(x5 Int)) (=> (and (|$P14| x6 x1 x2 x3) (and (|$P9| x6 x3 x4) (and (|$P4| x2 x3 x4 x5) (and (|$P7| x6) (and (|$P8| x6 x7) (and (<= (+ 1 x3) x6) (= x0 (+ 1 x3)))))))) (|$P8| x6 x7))))
(assert (forall ((x6 Int)(x7 Int)(x8 Int)(x3 Int)(x0 Int)(x1 Int)(x2 Int)(x4 Int)(x5 Int)) (=> (and (|$P14| x6 x1 x2 x3) (and (|$P9| x6 x3 x4) (and (|$P4| x2 x3 x4 x5) (and (|$P7| x6) (and (|$P8| x6 x7) (and (|$P9| x6 x7 x8) (and (<= (+ 1 x3) x6) (= x0 (+ 1 x3))))))))) (|$P9| x6 x7 x8))))
(assert (forall ((x6 Int)(x1 Int)(x8 Int)(x3 Int)(x0 Int)(x2 Int)(x4 Int)(x5 Int)(x7 Int)) (=> (and (|$P14| x6 x1 x2 x3) (and (|$P9| x6 x3 x4) (and (|$P4| x2 x3 x4 x5) (and (|$P7| x6) (and (|$P11| x6 x7 x8) (and (<= (+ 1 x3) x6) (= x0 (+ 1 x3)))))))) (|$P11| x6 x1 x8))))
(assert (forall ((x6 Int)(x5 Int)(x8 Int)(x9 Int)(x2 Int)(x0 Int)(x7 Int)(x1 Int)(x3 Int)(x4 Int)) (=> (and (|$P14| x6 x7 x1 x2) (and (|$P9| x6 x2 x3) (and (|$P4| x1 x2 x3 x4) (and (|$P7| x6) (and (|$P11| x6 x5 x8) (and (|$P13| x6 x7 x8 x9) (and (<= (+ 1 x2) x6) (= x0 (+ 1 x2))))))))) (|$P13| x6 x5 x8 x9))))
(assert (forall ((x8 Int)(x0 Int)(x1 Int)(x2 Int)(x5 Int)(x3 Int)(x4 Int)(x6 Int)(x7 Int)) (=> (and (|$P14| x8 x3 x4 x5) (and (|$P9| x8 x5 x6) (and (|$P4| x4 x5 x6 x7) (and (|$P7| x8) (and (<= (+ 1 x5) x8) (= x2 (+ 1 x5))))))) (|$P14| x8 x0 x1 x2))))
(assert (forall ((x5 Int)(x0 Int)(x1 Int)(x2 Int)(x9 Int)(x8 Int)(x3 Int)(x4 Int)(x6 Int)(x7 Int)) (=> (and (|$P14| x5 x0 x1 x2) (and (|$P9| x5 x2 x3) (and (|$P4| x1 x2 x3 x4) (and (|$P7| x5) (and (|$P5| x5 x6 x7 x8 x9) (and (<= (+ 1 x2) x5) (= x8 (+ 1 x2)))))))) (|$P5| x5 x0 x1 x2 x9))))
(assert (forall ((x0 Int)) (|$P6| x0)))
(assert (forall ((x0 Int)) (|$P6| x0)))
(assert (forall ((x0 Int)(x1 Int)) (=> (<= x0 x1) (|$P7| x0))))
(assert (forall ((x1 Int)(x2 Int)(x0 Int)) (=> (and (|$P8| x1 x2) (<= x1 x0)) (|$P10| x1 x2))))
(assert (forall ((x1 Int)(x2 Int)(x3 Int)(x0 Int)) (=> (and (|$P8| x1 x2) (and (|$P12| x1 x2 x3) (<= x1 x0))) (|$P9| x1 x2 x3))))
(assert (forall ((x0 Int)(x3 Int)(x1 Int)(x2 Int)) (=> (and (|$P11| x1 x2 x3) (<= x1 x0)) (|$P10| x0 x3))))
(assert (forall ((x0 Int)(x1 Int)(x3 Int)(x4 Int)(x2 Int)) (=> (and (|$P11| x0 x1 x3) (and (|$P12| x2 x3 x4) (<= x0 x2))) (|$P13| x0 x1 x3 x4))))
(assert (forall ((x2 Int)(x0 Int)(x1 Int)(x4 Int)(x3 Int)) (=> (and (<= x2 x3) (= x4 0)) (|$P14| x2 x0 x1 x4))))
(check-sat)
